
c turning on binary mode checking

c parsing input formula with 6150 variables and 26406 clauses

c finished parsing, read 12779 bytes from proof file

c detected empty clause; start verification via backward checking

c 1271 of 26406 clauses in core                            

c 103 of 3060 lemmas in core using 10741 resolution steps

c 0 RAT lemmas in core; 2 redundant literals in core lemmas

s VERIFIED

c verification time: 0.059 seconds
